77422.0
1119
0 3 5 8 10 16 17 20 27 32 34 35 37 38 41 43 45 49 50 55 62 64 65 72 74 76 80 81 82 85 86 96 97 102 103 106 107 109 111 112 118 120 122 128 131 133 134 139 143 144 146 156 158 160 161 163 164 170 173 174 176 180 183 188 189 193 194 195 198 199 